; benchmark generated from python API
(set-info :status unknown)
(declare-datatypes ((RealState 0)) (((RMk1 (rval1 Real)) (RMk2 (rval2 Real)))))
 (assert
 (forall ((?x1 Real) )(exists ((?x2_st RealState) (val!412 Real) )(forall ((?x3 Real) )(exists ((?x4_st RealState) (val!413 Real) )(let ((?x12491 (rval2 ?x4_st)))
 (let ((?x9317 (- 94.0)))
 (let ((?x8734 (* ?x9317 ?x12491)))
 (let (($x715 (> (+ (+ (* 23.0 ?x1) (* (- 65.0) (rval2 ?x2_st))) (* 17.0 ?x12491)) 0.0)))
 (let (($x12529 (or $x715 (<= (+ (+ (* (- 71.0) ?x1) (* 15.0 ?x3)) ?x8734) 38.0))))
 (let ((?x7629 (- 33.0)))
 (let ((?x14091 (* ?x7629 ?x12491)))
 (let ((?x11281 (+ (+ (+ (* (- 18.0) ?x1) (* 100.0 (rval2 ?x2_st))) (* 62.0 ?x3)) ?x14091)))
 (let ((?x1667 (- 79.0)))
 (let ((?x10850 (+ (+ (+ (* (- 90.0) ?x1) (* 19.0 (rval2 ?x2_st))) (* 64.0 ?x3)) (* 64.0 ?x12491))))
 (let ((?x1797 (- 87.0)))
 (let (($x10762 (<= (+ (+ (* (- 10.0) ?x1) (* (- 100.0) ?x3)) (* 88.0 ?x12491)) ?x1797)))
 (let (($x6762 (> (+ (+ (* (- 40.0) ?x1) (* 78.0 (rval2 ?x2_st))) (* 89.0 ?x3)) 92.0)))
 (let (($x15525 (and (and (and $x6762 $x10762) (and (> ?x10850 ?x1667) (<= ?x11281 0.0))) $x12529)))
 (let ((?x21872 (- 51.0)))
 (let ((?x7384 (* ?x21872 ?x12491)))
 (let (($x4454 (not (= (+ (+ (* 61.0 ?x1) (* (- 26.0) (rval2 ?x2_st))) ?x7384) 0.0))))
 (let ((?x10767 (- 69.0)))
 (let (($x9867 (and (= (+ (+ (* 92.0 ?x1) (* 74.0 ?x3)) (* 55.0 ?x12491)) ?x10767) $x4454)))
 (let ((?x7833 (- 42.0)))
 (let ((?x1140 (* ?x7833 ?x3)))
 (let (($x13668 (>= (+ (+ (* (- 27.0) ?x1) (* 71.0 (rval2 ?x2_st))) ?x1140) 4.0)))
 (let ((?x13120 (- 4.0)))
 (let ((?x7291 (* ?x13120 ?x3)))
 (let ((?x10362 (+ (+ (+ (* 56.0 ?x1) (* (- 1.0) (rval2 ?x2_st))) ?x7291) (* (- 29.0) ?x12491))))
 (let (($x9933 (or (= (+ (* 43.0 (rval2 ?x2_st)) (* 69.0 ?x3)) 51.0) (<= ?x10362 48.0))))
 (let (($x15564 (>= (+ (+ (* ?x7833 ?x1) (* 25.0 ?x3)) (* (- 20.0) ?x12491)) 0.0)))
 (let ((?x11469 (* 12.0 ?x3)))
 (let ((?x298 (+ (+ (+ (* (- 85.0) ?x1) (* (- 20.0) (rval2 ?x2_st))) ?x11469) (* (- 34.0) ?x12491))))
 (let (($x5081 (and (and (and (and (= ?x298 3.0) $x15564) $x9933) (and $x13668 $x9867)) $x15525)))
 (let ((?x2099 (* 9.0 ?x12491)))
 (let ((?x13448 (- 91.0)))
 (let ((?x80 (* ?x13448 ?x3)))
 (let (($x2588 (> (+ (+ (+ (* (- 2.0) ?x1) (* 92.0 (rval2 ?x2_st))) ?x80) ?x2099) 0.0)))
 (let (($x3697 (<= (+ (+ (* (- 74.0) (rval2 ?x2_st)) (* 70.0 ?x3)) (* 34.0 ?x12491)) ?x1797)))
 (let ((?x1586 (+ (+ (* (- 24.0) ?x1) (* 87.0 (rval2 ?x2_st))) (* (- 89.0) ?x12491))))
 (let (($x851 (and (< ?x1586 37.0) (not (= (+ (* (- 18.0) ?x3) (* 24.0 ?x12491)) (- 3.0))))))
 (let ((?x3019 (- 31.0)))
 (let ((?x9501 (+ (+ (+ (* (- 60.0) ?x1) (* 54.0 (rval2 ?x2_st))) (* 87.0 ?x3)) (* (- 17.0) ?x12491))))
 (let ((?x22157 (- 25.0)))
 (let ((?x12100 (* ?x22157 ?x12491)))
 (let ((?x23976 (+ (+ (* (- 65.0) ?x1) (* (- 68.0) (rval2 ?x2_st))) (* 3.0 ?x3))))
 (let (($x279 (and (and (and (< (+ ?x23976 ?x12100) 79.0) (= ?x9501 ?x3019)) $x851) (or $x3697 (or $x2588 (>= (* (- 43.0) ?x3) 7.0))))))
 (let ((?x11786 (* 38.0 ?x12491)))
 (let ((?x6912 (+ (+ (* (- 9.0) ?x1) (* (- 85.0) (rval2 ?x2_st))) (* (- 66.0) ?x3))))
 (let ((?x6853 (- 11.0)))
 (let ((?x14 (* 26.0 ?x12491)))
 (let ((?x10780 (+ (+ (+ (* 59.0 ?x1) (* 76.0 (rval2 ?x2_st))) (* 9.0 ?x3)) ?x14)))
 (let ((?x4957 (- 78.0)))
 (let ((?x10530 (+ (+ (+ (* 29.0 ?x1) (* 96.0 (rval2 ?x2_st))) (* 35.0 ?x3)) (* (- 65.0) ?x12491))))
 (let ((?x25118 (- 21.0)))
 (let (($x1075 (> (+ (+ (* 71.0 ?x1) (* 30.0 (rval2 ?x2_st))) (* 50.0 ?x12491)) ?x25118)))
 (let (($x13117 (or (and $x1075 (> ?x10530 ?x4957)) (and (< ?x10780 ?x6853) (>= (+ ?x6912 ?x11786) 70.0)))))
 (let (($x22430 (or (or $x13117 (= (+ (* 85.0 ?x1) (* ?x1667 (rval2 ?x2_st))) ?x22157)) $x279)))
 (let ((?x17306 (- 47.0)))
 (let ((?x20857 (* ?x17306 ?x12491)))
 (let (($x13808 (< (+ (+ (* (- 3.0) ?x1) (* (- 99.0) (rval2 ?x2_st))) ?x20857) 61.0)))
 (let ((?x30726 (- 92.0)))
 (let ((?x10011 (* 20.0 ?x12491)))
 (let ((?x13617 (+ (+ (+ (* (- 74.0) ?x1) (* 44.0 (rval2 ?x2_st))) (* 39.0 ?x3)) ?x10011)))
 (let ((?x7810 (- 70.0)))
 (let (($x10064 (<= (+ (+ (* 74.0 ?x1) (* (- 37.0) ?x3)) (* 24.0 ?x12491)) ?x7810)))
 (let (($x9119 (< (+ (+ (* 40.0 (rval2 ?x2_st)) (* 68.0 ?x3)) (* (- 35.0) ?x12491)) 97.0)))
 (let (($x8189 (or (or $x9119 $x10064) (> (+ (* (- 57.0) ?x3) (* 76.0 ?x12491)) 5.0))))
 (let (($x3364 (and (> (+ (* 13.0 (rval2 ?x2_st)) (* (- 44.0) ?x3)) 27.0) (<= (+ (* (- 49.0) ?x3) (* 71.0 ?x12491)) (- 16.0)))))
 (let ((?x10447 (- 68.0)))
 (let ((?x6348 (* 68.0 ?x12491)))
 (let ((?x12510 (+ (+ (+ (* 57.0 ?x1) (* ?x30726 (rval2 ?x2_st))) (* 11.0 ?x3)) ?x6348)))
 (let (($x7950 (or (< ?x12510 ?x10447) (< (+ (* (- 60.0) ?x1) (* (- 2.0) (rval2 ?x2_st))) (- 80.0)))))
 (let (($x10904 (and (> (+ (* 6.0 ?x1) (* 72.0 ?x3)) 0.0) (>= (+ (* 55.0 ?x3) (* 7.0 ?x12491)) (- 98.0)))))
 (let (($x11645 (= (+ (+ (* 3.0 ?x1) (* (- 85.0) (rval2 ?x2_st))) (* 17.0 ?x12491)) 0.0)))
 (let (($x22219 (> (+ (+ (* 63.0 (rval2 ?x2_st)) (* 97.0 ?x3)) (* (- 60.0) ?x12491)) ?x4957)))
 (let (($x13851 (or (and (or (or $x22219 $x11645) $x10904) (or $x7950 $x3364)) (and $x8189 (and (< ?x13617 ?x30726) $x13808)))))
 (let (($x7714 (> (+ (+ (* 59.0 ?x1) (* 2.0 (rval2 ?x2_st))) (* 23.0 ?x3)) 23.0)))
 (let (($x7883 (or (>= (+ (* (- 10.0) ?x1) (* (- 74.0) ?x3)) (- 5.0)) $x7714)))
 (let (($x10778 (< (+ (+ (* 75.0 ?x1) (* 67.0 (rval2 ?x2_st))) (* ?x10767 ?x12491)) 0.0)))
 (let (($x6685 (>= (+ (+ (* 14.0 ?x1) (* 76.0 ?x3)) (* (- 50.0) ?x12491)) 40.0)))
 (let ((?x5416 (- 53.0)))
 (let ((?x22013 (* ?x5416 ?x3)))
 (let (($x21903 (and (< (+ (* (- 93.0) (rval2 ?x2_st)) (* (- 57.0) ?x12491)) 79.0) (> (+ (+ (* (- 96.0) ?x1) (* 73.0 (rval2 ?x2_st))) ?x22013) 14.0))))
 (let (($x868 (>= (+ (+ (* (- 76.0) ?x1) (* 32.0 (rval2 ?x2_st))) (* 60.0 ?x12491)) 0.0)))
 (let (($x669 (> (+ (+ (* 58.0 ?x1) (* 93.0 (rval2 ?x2_st))) (* (- 65.0) ?x3)) 0.0)))
 (let (($x6331 (and (and $x669 (<= (+ (* 32.0 ?x1) (* (- 99.0) ?x12491)) 14.0)) $x868)))
 (let ((?x4993 (- 41.0)))
 (let (($x1793 (>= (+ (+ (* (- 13.0) ?x1) (* ?x4957 (rval2 ?x2_st))) (* 24.0 ?x3)) ?x4993)))
 (let (($x6553 (= (+ (+ (* 78.0 (rval2 ?x2_st)) (* 25.0 ?x3)) (* 98.0 ?x12491)) 53.0)))
 (let (($x11971 (or $x6553 (and $x1793 (> (+ (* 71.0 ?x1) (* ?x7833 (rval2 ?x2_st))) (- 61.0))))))
 (let ((?x6527 (* 51.0 ?x12491)))
 (let ((?x14340 (+ (+ (+ (* 53.0 ?x1) (* 56.0 (rval2 ?x2_st))) (* 78.0 ?x3)) ?x6527)))
 (let ((?x1290 (* 25.0 ?x12491)))
 (let ((?x5205 (- 85.0)))
 (let ((?x7104 (* ?x5205 ?x3)))
 (let (($x2502 (> (+ (+ (+ (* (- 1.0) ?x1) (* 62.0 (rval2 ?x2_st))) ?x7104) ?x1290) ?x1667)))
 (let ((?x1886 (- 17.0)))
 (let ((?x7322 (* 90.0 ?x12491)))
 (let ((?x8911 (+ (+ (+ (* 4.0 ?x1) (* 45.0 (rval2 ?x2_st))) (* (- 13.0) ?x3)) ?x7322)))
 (let (($x2478 (= (+ (+ (* ?x1886 ?x1) (* 99.0 (rval2 ?x2_st))) (* (- 48.0) ?x3)) ?x7629)))
 (let (($x4986 (and (or (or (and $x2478 (< ?x8911 ?x1886)) (and $x2502 (<= ?x14340 0.0))) $x11971) (and (and $x6331 $x21903) (or (and $x6685 $x10778) $x7883)))))
 (let ((?x2758 (+ (+ (+ (* ?x4957 ?x1) (* 57.0 (rval2 ?x2_st))) (* (- 67.0) ?x3)) (* (- 97.0) ?x12491))))
 (let (($x2015 (or (= (+ (+ (* 30.0 ?x1) (* 63.0 ?x3)) ?x2099) 75.0) (= ?x2758 24.0))))
 (let ((?x4363 (- 20.0)))
 (let ((?x6626 (* ?x4363 ?x12491)))
 (let ((?x346 (+ (+ (* (- 43.0) ?x1) (* ?x10447 (rval2 ?x2_st))) (* (- 34.0) ?x3))))
 (let ((?x5325 (- 62.0)))
 (let ((?x7477 (- 98.0)))
 (let ((?x271 (* ?x7477 ?x12491)))
 (let (($x10056 (or (>= (+ (+ (* 84.0 ?x1) (* (- 52.0) (rval2 ?x2_st))) ?x271) ?x5325) (= (+ ?x346 ?x6626) 0.0))))
 (let (($x4359 (= (+ (+ (* 99.0 (rval2 ?x2_st)) (* (- 37.0) ?x3)) (* 69.0 ?x12491)) 33.0)))
 (let (($x9582 (and (not $x4359) (> (+ (+ (* 97.0 (rval2 ?x2_st)) ?x22013) (* (- 54.0) ?x12491)) 0.0))))
 (let ((?x1724 (- 2.0)))
 (let (($x4658 (or (> (* ?x7629 ?x3) ?x3019) (< (+ (+ (* 65.0 ?x1) (* (- 30.0) (rval2 ?x2_st))) ?x271) ?x1724))))
 (let (($x11573 (= (+ (+ (* (- 27.0) ?x1) (* 100.0 (rval2 ?x2_st))) (* 21.0 ?x3)) ?x22157)))
 (let ((?x3212 (* 50.0 ?x12491)))
 (let ((?x2023 (+ (+ (+ (* 94.0 ?x1) (* 32.0 (rval2 ?x2_st))) (* (- 65.0) ?x3)) ?x3212)))
 (let ((?x5860 (* 43.0 ?x12491)))
 (let ((?x4653 (+ (+ (+ (* 4.0 ?x1) (* 59.0 (rval2 ?x2_st))) (* ?x30726 ?x3)) ?x5860)))
 (let (($x13922 (or (and (or (>= ?x4653 82.0) (or (>= ?x2023 67.0) $x11573)) $x4658) (or (or $x9582 $x10056) $x2015))))
 (let ((?x7921 (+ (+ (+ (* (- 24.0) ?x1) (* ?x22157 (rval2 ?x2_st))) (* 95.0 ?x3)) ?x12100)))
 (let ((?x7205 (* ?x10447 ?x12491)))
 (let ((?x15596 (+ (+ (+ (* (- 82.0) ?x1) (* (- 67.0) (rval2 ?x2_st))) ?x7291) ?x7205)))
 (let ((?x6281 (+ (+ (* (- 30.0) ?x1) (* (- 100.0) (rval2 ?x2_st))) (* (- 35.0) ?x3))))
 (let (($x13513 (or (= (+ ?x6281 ?x7384) ?x22157) (> (+ (* 82.0 ?x1) (* (- 73.0) (rval2 ?x2_st))) (- 18.0)))))
 (let ((?x429 (- 54.0)))
 (let ((?x376 (* 73.0 ?x12491)))
 (let ((?x5125 (- 80.0)))
 (let ((?x11245 (* ?x5125 ?x3)))
 (let (($x299 (= (+ (+ (+ (* 77.0 ?x1) (* (- 82.0) (rval2 ?x2_st))) ?x11245) ?x376) ?x429)))
 (let (($x13699 (and (or (not $x299) (> (+ (* 98.0 ?x1) (* (- 45.0) ?x12491)) 0.0)) $x13513)))
 (let (($x7480 (not (= (+ (* (- 29.0) (rval2 ?x2_st)) (* (- 18.0) ?x12491)) 33.0))))
 (let (($x17174 (<= (+ (+ (* 35.0 ?x1) (* (- 9.0) ?x3)) (* 98.0 ?x12491)) ?x7810)))
 (let (($x19661 (or (not (= (+ (* ?x7477 ?x1) (* 29.0 ?x12491)) 0.0)) (or $x17174 $x7480))))
 (let ((?x12311 (+ (+ (+ (* ?x7629 ?x1) (* ?x10447 (rval2 ?x2_st))) (* ?x1667 ?x3)) (* (- 24.0) ?x12491))))
 (let ((?x371 (- 23.0)))
 (let (($x14770 (>= (+ (+ (* (- 75.0) (rval2 ?x2_st)) ?x22013) (* (- 45.0) ?x12491)) ?x371)))
 (let (($x8349 (>= (+ (+ (* (- 61.0) ?x1) (* 40.0 ?x3)) (* 30.0 ?x12491)) ?x4363)))
 (let (($x4814 (<= (+ (+ (* 38.0 ?x1) (* 93.0 (rval2 ?x2_st))) (* 96.0 ?x3)) ?x13448)))
 (let (($x1206 (or (and (or (and $x4814 $x8349) (and $x14770 (= ?x12311 0.0))) $x19661) (or $x13699 (and (> ?x15596 32.0) (> ?x7921 23.0))))))
 (let ((?x6430 (- 63.0)))
 (let (($x5217 (not (= (+ (+ (* ?x7833 (rval2 ?x2_st)) (* ?x10447 ?x3)) (* ?x371 ?x12491)) ?x6430))))
 (let (($x18383 (and $x5217 (>= (+ (+ (* (- 39.0) ?x1) (* 61.0 ?x3)) ?x7384) (- 32.0)))))
 (let (($x17421 (and (= (+ (* (- 40.0) ?x1) (* (- 7.0) ?x3)) 0.0) (> (+ (* 83.0 (rval2 ?x2_st)) (* 96.0 ?x3)) 96.0))))
 (let ((?x1829 (* 15.0 ?x12491)))
 (let ((?x1708 (- 64.0)))
 (let ((?x13275 (* ?x1708 ?x3)))
 (let (($x16826 (> (+ (+ (+ (* 91.0 ?x1) (* (- 89.0) (rval2 ?x2_st))) ?x13275) ?x1829) 0.0)))
 (let ((?x7367 (* 18.0 ?x12491)))
 (let ((?x17735 (- 75.0)))
 (let ((?x9988 (* ?x17735 ?x3)))
 (let (($x12307 (= (+ (+ (+ (* 14.0 ?x1) (* (- 55.0) (rval2 ?x2_st))) ?x9988) ?x7367) ?x21872)))
 (let (($x11704 (>= (+ (+ (* (- 77.0) ?x1) (* 39.0 ?x3)) (* (- 10.0) ?x12491)) ?x17306)))
 (let (($x17099 (and $x11704 (= (+ (+ (* 99.0 ?x1) (* 32.0 (rval2 ?x2_st))) ?x20857) 0.0))))
 (let ((?x9074 (- 50.0)))
 (let ((?x5414 (+ (+ (+ (* 98.0 ?x1) (* (- 29.0) (rval2 ?x2_st))) (* ?x4993 ?x3)) ?x8734)))
 (let ((?x16399 (* 80.0 ?x12491)))
 (let ((?x366 (+ (+ (+ (* 41.0 ?x1) (* (- 5.0) (rval2 ?x2_st))) (* 62.0 ?x3)) ?x16399)))
 (let (($x2743 (= (+ (+ (* 47.0 ?x1) (* (- 76.0) (rval2 ?x2_st))) (* 91.0 ?x12491)) 0.0)))
 (let (($x17025 (or (not $x2743) (> (+ (* 67.0 (rval2 ?x2_st)) (* 40.0 ?x12491)) 44.0))))
 (let (($x2820 (or (or $x17025 (or (not (= ?x366 0.0)) (>= ?x5414 ?x9074))) (or (or $x17099 (or (not $x12307) $x16826)) (or $x17421 $x18383)))))
 (let ((?x8236 (+ (+ (+ (* (- 46.0) ?x1) (* 11.0 (rval2 ?x2_st))) (* 83.0 ?x3)) (* (- 8.0) ?x12491))))
 (let ((?x10789 (- 18.0)))
 (let ((?x8210 (* ?x10789 ?x12491)))
 (let (($x13872 (<= (+ (+ (* (- 96.0) (rval2 ?x2_st)) (* (- 99.0) ?x3)) ?x8210) 0.0)))
 (let (($x18823 (> (+ (+ (+ (* 31.0 ?x1) (* (- 65.0) (rval2 ?x2_st))) ?x13275) ?x20857) 0.0)))
 (let ((?x5318 (+ (+ (* (- 76.0) ?x1) (* ?x7477 (rval2 ?x2_st))) (* (- 83.0) ?x12491))))
 (let ((?x11032 (* 97.0 ?x3)))
 (let (($x13671 (= (+ (+ (* (- 59.0) ?x1) (* (- 16.0) (rval2 ?x2_st))) ?x11032) 48.0)))
 (let ((?x9675 (- 86.0)))
 (let ((?x13577 (+ (+ (* (- 99.0) ?x1) (* (- 65.0) (rval2 ?x2_st))) (* (- 71.0) ?x3))))
 (let (($x4111 (and (or (< ?x13577 ?x9675) (not $x13671)) (or (> (+ (* 30.0 ?x1) (* ?x5325 ?x12491)) ?x17735) (< ?x5318 0.0)))))
 (let ((?x7539 (- 26.0)))
 (let ((?x2298 (* ?x1724 ?x12491)))
 (let ((?x23952 (+ (+ (+ (* 2.0 ?x1) (* (- 37.0) (rval2 ?x2_st))) (* 99.0 ?x3)) ?x2298)))
 (let ((?x16371 (- 90.0)))
 (let (($x7287 (= (+ (+ (* 61.0 ?x1) (* 84.0 (rval2 ?x2_st))) (* 17.0 ?x3)) ?x16371)))
 (let (($x8035 (or (or (or $x7287 (< ?x23952 ?x7539)) $x4111) (or $x18823 (or $x13872 (= ?x8236 72.0))))))
 (let (($x3851 (= (+ (+ (* 76.0 ?x1) (* (- 40.0) ?x3)) (* 79.0 ?x12491)) 8.0)))
 (let ((?x17570 (- 71.0)))
 (let (($x1474 (< (+ (+ (* 69.0 ?x1) (* (- 28.0) (rval2 ?x2_st))) (* 14.0 ?x3)) ?x17570)))
 (let ((?x11861 (- 66.0)))
 (let ((?x6178 (* 39.0 ?x12491)))
 (let ((?x8714 (+ (+ (+ (* 94.0 ?x1) (* 16.0 (rval2 ?x2_st))) (* (- 100.0) ?x3)) ?x6178)))
 (let ((?x1697 (- 37.0)))
 (let ((?x12890 (* ?x1697 ?x3)))
 (let (($x25119 (= (+ (+ (+ (* 95.0 ?x1) (* (- 29.0) (rval2 ?x2_st))) ?x12890) ?x2298) 75.0)))
 (let (($x7877 (or (and (= (+ (* ?x1724 ?x1) (* ?x1886 ?x3)) 30.0) $x25119) (or (= ?x8714 ?x11861) $x1474))))
 (let ((?x997 (- 38.0)))
 (let ((?x15956 (* ?x997 ?x12491)))
 (let ((?x3177 (+ (+ (+ (* 40.0 ?x1) (* 95.0 (rval2 ?x2_st))) (* 61.0 ?x3)) ?x15956)))
 (let (($x10633 (> (+ (+ (* 46.0 (rval2 ?x2_st)) (* 26.0 ?x3)) (* (- 40.0) ?x12491)) 0.0)))
 (let (($x6871 (= (+ (+ (* ?x13448 (rval2 ?x2_st)) (* 22.0 ?x3)) (* 11.0 ?x12491)) 0.0)))
 (let (($x7386 (or (or (or (or $x6871 $x10633) (< ?x3177 88.0)) (or $x7877 (not $x3851))) (or $x8035 $x2820))))
 (let ((?x9304 (+ (+ (+ (* ?x7833 ?x1) (* 62.0 (rval2 ?x2_st))) (* 75.0 ?x3)) (* ?x13448 ?x12491))))
 (let (($x13495 (or (>= ?x9304 ?x30726) (= (+ (* (- 76.0) (rval2 ?x2_st)) (* (- 74.0) ?x3)) 20.0))))
 (let (($x3423 (= (+ (+ (* (- 65.0) ?x1) (* 65.0 ?x3)) (* (- 22.0) ?x12491)) ?x13120)))
 (let ((?x13272 (- 82.0)))
 (let (($x1451 (<= (+ (+ (* ?x17306 (rval2 ?x2_st)) (* (- 16.0) ?x3)) (* ?x17735 ?x12491)) ?x13272)))
 (let (($x4671 (and (>= (+ (+ (* 7.0 ?x1) (* (- 32.0) ?x3)) ?x6178) 88.0) $x1451)))
 (let (($x26044 (or (= (+ (* (- 8.0) ?x1) (* 92.0 (rval2 ?x2_st))) 0.0) (< (* (- 48.0) ?x12491) 0.0))))
 (let ((?x8744 (- 73.0)))
 (let (($x4417 (<= (+ (+ (* 82.0 (rval2 ?x2_st)) (* (- 27.0) ?x3)) (* 13.0 ?x12491)) ?x8744)))
 (let (($x11812 (and (< (+ (* 28.0 ?x3) ?x2298) ?x1724) (<= (+ (* (- 15.0) (rval2 ?x2_st)) (* 33.0 ?x3)) (- 22.0)))))
 (let (($x2073 (and $x11812 (and $x4417 (= (+ (* 47.0 (rval2 ?x2_st)) (* ?x9675 ?x12491)) 0.0)))))
 (let (($x4688 (< (+ (+ (* ?x5125 ?x1) (* 23.0 (rval2 ?x2_st))) (* (- 15.0) ?x12491)) 34.0)))
 (let ((?x11865 (- 6.0)))
 (let (($x1739 (> (+ (+ (* (- 14.0) ?x1) (* 19.0 (rval2 ?x2_st))) (* 77.0 ?x12491)) ?x11865)))
 (let ((?x3428 (+ (+ (* 9.0 ?x1) (* (- 77.0) (rval2 ?x2_st))) (* (- 8.0) ?x3))))
 (let (($x15139 (and (<= ?x3428 50.0) (>= (+ (* ?x10447 (rval2 ?x2_st)) (* (- 29.0) ?x3)) ?x5125))))
 (let (($x3099 (and (not (= (+ (+ (* 19.0 ?x1) (* 5.0 ?x3)) ?x15956) 72.0)) (<= (+ (* ?x1697 ?x1) ?x11245) 95.0))))
 (let ((?x1906 (* 67.0 ?x12491)))
 (let ((?x22959 (+ (+ (+ (* 50.0 ?x1) (* ?x17735 (rval2 ?x2_st))) (* (- 76.0) ?x3)) ?x1906)))
 (let (($x9963 (or (<= ?x22959 ?x13120) (>= (+ (+ (* 89.0 ?x1) (* 30.0 ?x3)) ?x14091) (- 35.0)))))
 (let (($x8008 (and (and (and $x9963 $x3099) (and $x15139 (or $x1739 $x4688))) (and $x2073 (or $x26044 $x4671)))))
 (let (($x4525 (not (= (+ (+ (* ?x17306 (rval2 ?x2_st)) (* (- 77.0) ?x3)) ?x16399) 99.0))))
 (let (($x9376 (and $x4525 (< (+ (+ (* ?x1886 (rval2 ?x2_st)) ?x11032) (* (- 74.0) ?x12491)) 0.0))))
 (let ((?x11012 (- 97.0)))
 (let (($x12755 (<= (+ (+ (* 36.0 ?x1) (* 78.0 (rval2 ?x2_st))) (* (- 5.0) ?x12491)) ?x11012)))
 (let (($x15838 (= (+ (+ (* (- 24.0) ?x1) (* (- 55.0) ?x3)) (* 4.0 ?x12491)) 15.0)))
 (let ((?x9345 (* 79.0 ?x12491)))
 (let ((?x972 (+ (+ (* (- 74.0) ?x1) (* (- 30.0) (rval2 ?x2_st))) (* 8.0 ?x3))))
 (let (($x2541 (not (= (+ (+ (* ?x9317 ?x1) (* (- 1.0) ?x3)) (* ?x5416 ?x12491)) 63.0))))
 (let (($x9683 (>= (+ (+ (* (- 24.0) ?x1) (* 22.0 (rval2 ?x2_st))) (* 41.0 ?x3)) ?x7477)))
 (let ((?x7697 (+ (+ (* (- 89.0) ?x1) (* (- 67.0) (rval2 ?x2_st))) (* 48.0 ?x12491))))
 (let (($x7450 (and (not (= (+ (* ?x11012 (rval2 ?x2_st)) (* 63.0 ?x3)) 69.0)) (> ?x7697 0.0))))
 (let (($x9378 (and $x7450 (and $x9683 (= (+ (* 64.0 ?x1) (* (- 28.0) ?x3)) (- 52.0))))))
 (let (($x7915 (and (and $x9378 $x2541) (or (> (+ ?x972 ?x9345) 0.0) (and (and (not $x15838) $x12755) $x9376)))))
 (let (($x11718 (>= (+ (+ (* 28.0 ?x1) (* ?x21872 (rval2 ?x2_st))) (* (- 84.0) ?x3)) ?x5125)))
 (let (($x23986 (> (+ (+ (* (- 44.0) ?x1) (* (- 12.0) ?x3)) (* 2.0 ?x12491)) 0.0)))
 (let (($x17343 (< (+ (+ (* 5.0 ?x1) (* 75.0 (rval2 ?x2_st))) (* 37.0 ?x3)) ?x9675)))
 (let (($x15312 (and (or $x17343 $x23986) (or $x11718 (> (+ (* 21.0 ?x3) (* 23.0 ?x12491)) 0.0)))))
 (let (($x12145 (or (= (+ (* ?x1708 ?x1) (* 99.0 ?x12491)) 50.0) (>= (+ (+ (* ?x13120 ?x1) (* 54.0 ?x3)) (* 86.0 ?x12491)) 46.0))))
 (let (($x9785 (< (+ (+ (* 20.0 ?x1) (* ?x21872 (rval2 ?x2_st))) (* 96.0 ?x12491)) ?x9074)))
 (let (($x208 (or $x9785 (<= (+ (* 11.0 (rval2 ?x2_st)) (* (- 9.0) ?x12491)) 32.0))))
 (let ((?x17958 (- 60.0)))
 (let ((?x10555 (+ (+ (+ (* ?x7629 ?x1) (* ?x30726 (rval2 ?x2_st))) (* (- 43.0) ?x3)) ?x7205)))
 (let (($x10595 (< (+ (+ (* 53.0 ?x1) (* ?x6853 (rval2 ?x2_st))) (* 7.0 ?x12491)) ?x371)))
 (let (($x10907 (and (>= (+ (* 20.0 ?x1) ?x11786) ?x5125) (not (= (+ (* (- 5.0) ?x1) (* (- 7.0) ?x12491)) (- 57.0))))))
 (let (($x12533 (not (= (+ (+ (* 10.0 (rval2 ?x2_st)) (* 14.0 ?x3)) ?x1290) 14.0))))
 (let ((?x4138 (+ (+ (+ (* ?x9675 ?x1) (* ?x1797 (rval2 ?x2_st))) (* ?x4363 ?x3)) (* ?x13272 ?x12491))))
 (let (($x16119 (or (and (< ?x4138 19.0) $x12533) (or $x10907 (and $x10595 (not (= ?x10555 ?x17958)))))))
 (let (($x10083 (and (and (and $x16119 (or (or $x208 $x12145) $x15312)) $x7915) (or $x8008 (and (not $x3423) $x13495)))))
 (let (($x13071 (and (and $x10083 $x7386) (or (or (and $x1206 $x13922) $x4986) (or (and $x13851 $x22430) $x5081)))))
 (let (($x636 (not (= ?x4_st (RMk1 val!413)))))
 (let (($x12990 (not (= ?x2_st (RMk1 val!412)))))
 (and $x12990 $x636 $x13071)))))))))))))))))))))))))))))))))))))))))))))))))))))))))))))))))))))))))))))))))))))))))))))))))))))))))))))))))))))))))))))))))))))))))))))))))))))))))))))))))))))))))))))))))))))))))))))))))))))))))))))))))))))))))))))))))))))))))))))))))))))
 )
 )
 )
 )
(check-sat)
